SCIP Status        : solving was interrupted [time limit reached]
Total Time         :    3600.01
  solving          :    3600.00
  presolving       :       0.37 (included in solving)
  reading          :       0.01
  copying          :       0.87 (28 #copies) (minimal 0.00, maximal 0.05, average 0.03)
Original Problem   :
  Problem name     : bbbenchmark/g05_80.0.cut
  Variables        : 81 (80 binary, 0 integer, 0 implicit integer, 1 continuous)
  Constraints      : 1 initial, 1 maximal
  Objective        : minimize, 1 non-zeros (abs.min = 1, abs.max = 1)
Presolved Problem  :
  Problem name     : t_bbbenchmark/g05_80.0.cut
  Variables        : 1609 (80 binary, 0 integer, 1527 implicit integer, 2 continuous)
  Constraints      : 1531 initial, 5375 maximal
  Objective        : minimize, 1 non-zeros (abs.min = 1, abs.max = 1)
  Nonzeros         : 6301 constraint, 162 clique table
Presolvers         :   ExecTime  SetupTime  Calls  FixedVars   AggrVars   ChgTypes  ChgBounds   AddHoles    DelCons    AddCons   ChgSides   ChgCoefs
  boundshift       :       0.00       0.00      0          0          0          0          0          0          0          0          0          0
  convertinttobin  :       0.00       0.00      0          0          0          0          0          0          0          0          0          0
  domcol           :       0.00       0.00      1          0          0          0          0          0          0          0          0          0
  dualagg          :       0.00       0.00      0          0          0          0          0          0          0          0          0          0
  dualcomp         :       0.00       0.00      1          0          0          0          0          0          0          0          0          0
  dualinfer        :       0.00       0.00      0          0          0          0          0          0          0          0          0          0
  dualsparsify     :       0.00       0.00      1          0          0          0          0          0          0          0          0          0
  gateextraction   :       0.00       0.00      0          0          0          0          0          0          0          0          0          0
  implics          :       0.00       0.00      2          0          0          0          0          0          0          0          0          0
  inttobinary      :       0.00       0.00      0          0          0          0          0          0          0          0          0          0
  qpkktref         :       0.00       0.00      0          0          0          0          0          0          0          0          0          0
  redvub           :       0.00       0.00      0          0          0          0          0          0          0          0          0          0
  sparsify         :       0.00       0.00      1          0          0          0          0          0          0          0          0          0
  stuffing         :       0.00       0.00      0          0          0          0          0          0          0          0          0          0
  trivial          :       0.00       0.00      4          0          0          0          0          0          0          0          0          0
  tworowbnd        :       0.00       0.00      0          0          0          0          0          0          0          0          0          0
  dualfix          :       0.00       0.00      4          0          0          0          0          0          0          0          0          0
  genvbounds       :       0.00       0.00      0          0          0          0          0          0          0          0          0          0
  probing          :       0.23       0.00      1          0          0          0          0          0          0          0          0          0
  pseudoobj        :       0.00       0.00      1          0          0          0          1          0          0          0          0          0
  symmetry         :       0.00       0.00      0          0          0          0          0          0          0          0          0          0
  vbounds          :       0.00       0.00      1          0          0          0          0          0          0          0          0          0
  varbound         :       0.00       0.00      2          0          0          0          0          0          0          0          0          0
  and              :       0.00       0.01      2          0          0          0          0          0          0          0          0          0
  linear           :       0.00       0.00      2          0          0          0          0          0          0          0          0          0
  logicor          :       0.00       0.00      0          0          0          0          0          0          0          0          0          0
  bounddisjunction :       0.00       0.00      0          0          0          0          0          0          0          0          0          0
  nonlinear        :       0.14       0.00      5          0          0          0          1          0          0       1530          0          0
  benders          :       0.00       0.00      0          0          0          0          0          0          0          0          0          0
  components       :       0.00       0.00      1          0          0          0          0          0          0          0          0          0
  root node        :          -          -      -          0          -          -         26          -          -          -          -          -
Constraints        :     Number  MaxNumber  #Separate #Propagate    #EnfoLP    #EnfoRelax  #EnfoPS    #Check   #ResProp    Cutoffs    DomReds       Cuts    Applied      Conss   Children
  benderslp        :          0          0          0          0      70578          0          0       2488          0          0          0          0          0          0          0
  integral         :          0          0          0          0      70578          0          0       2488          0          0       2747          0          0       1243     139106
  varbound         :          1          1         22       7224          0          0          0         40          0          0        120          0          0          0          0
  and              :       1527       1527      90525     483634         15          0          0         40     166680          1    2511864      18201      17845          0          0
  linear           :          3          3         22     483636         15          0          0         38          3          0      12116          0          0          0          0
  logicor          :          0+      3844          0     125114          0          0          0          0        188        402         44          0          0          0          0
  bounddisjunction :          0+         5          0        865          0          0          0          0          0          0          0          0          0          0          0
  benders          :          0          0          0          0         15          0          0         36          0          0          0          0          0          0          0
  countsols        :          0          0          0          0         15          0          0         36          0          0          0          0          0          0          0
  components       :          0          0          0          0          0          0          0          0          0          0          0          0          0          0          0
Constraint Timings :  TotalTime  SetupTime   Separate  Propagate     EnfoLP     EnfoPS     EnfoRelax   Check    ResProp    SB-Prop
  benderslp        :       0.11       0.00       0.00       0.00       0.11       0.00       0.00       0.00       0.00       0.00
  integral         :      47.30       0.00       0.00       0.00      47.30       0.00       0.00       0.00       0.00       0.00
  varbound         :       0.01       0.00       0.00       0.00       0.00       0.00       0.00       0.00       0.00       0.01
  and              :      72.45       0.01      47.68      24.17       0.00       0.00       0.00       0.02       0.18       0.39
  linear           :       0.61       0.00       0.01       0.59       0.00       0.00       0.00       0.00       0.00       0.01
  logicor          :       5.52       0.00       0.00       5.49       0.00       0.00       0.00       0.00       0.00       0.03
  bounddisjunction :       0.01       0.00       0.00       0.01       0.00       0.00       0.00       0.00       0.00       0.00
  benders          :       0.00       0.00       0.00       0.00       0.00       0.00       0.00       0.00       0.00       0.00
  countsols        :       0.00       0.00       0.00       0.00       0.00       0.00       0.00       0.00       0.00       0.00
  components       :       0.12       0.00       0.00       0.12       0.00       0.00       0.00       0.00       0.00       0.00
Propagators        : #Propagate   #ResProp    Cutoffs    DomReds
  dualfix          :          4          0          0          0
  genvbounds       :          0          0          0          0
  nlobbt           :          0          0          0          0
  obbt             :          0          0          0          0
  probing          :          0          0          0          0
  pseudoobj        :     327697          0          0         26
  redcost          :     177692          0          0     116759
  rootredcost      :         25          0          0          0
  symmetry         :          0          0          0          0
  vbounds          :      43293          0          0          0
Propagator Timings :  TotalTime  SetupTime   Presolve  Propagate    ResProp    SB-Prop
  dualfix          :       0.00       0.00       0.00       0.00       0.00       0.00
  genvbounds       :       0.39       0.00       0.00       0.38       0.00       0.01
  nlobbt           :       0.00       0.00       0.00       0.00       0.00       0.00
  obbt             :       0.01       0.00       0.00       0.01       0.00       0.00
  probing          :       0.23       0.00       0.23       0.00       0.00       0.00
  pseudoobj        :       0.64       0.00       0.00       0.64       0.00       0.00
  redcost          :       9.71       0.00       0.00       9.71       0.00       0.00
  rootredcost      :       0.35       0.00       0.00       0.35       0.00       0.00
  symmetry         :       0.22       0.00       0.00       0.22       0.00       0.00
  vbounds          :       0.45       0.00       0.00       0.42       0.00       0.03
Conflict Analysis  :       Time      Calls    Success    DomReds  Conflicts   Literals    Reconvs ReconvLits   Dualrays   Nonzeros   LP Iters   (pool size: [10000,10000])
  propagation      :       0.01        403        338          -        379       44.6          0        0.0          -          -          -
  infeasible LP    :       0.00          0          0          -          0        0.0          0        0.0          0        0.0          0
  bound exceed. LP :      10.38       7157       4591          -      55976       66.9          0        0.0          0        0.0      22375
  strong branching :       0.00          0          0          -          0        0.0          0        0.0          -          -          0
  pseudo solution  :       0.00          0          0          -          0        0.0          0        0.0          -          -          -
  applied globally :       0.23          -          -          0      17151       70.6          -          -          0          -          -
  applied locally  :          -          -          -          0          0        0.0          -          -          0          -          -
Separators         :   ExecTime  SetupTime      Calls  RootCalls    Cutoffs    DomReds  FoundCuts ViaPoolAdd  DirectAdd    Applied ViaPoolApp  DirectApp      Conss
  cut pool         :       3.60          -      19461         44          -          -      34139     585304          -          -          -          -          -    (maximal pool size:       2038)
  aggregation      :      19.50       0.00       4385         22          0          0        336       2166          0        480        480          0          0
  > cmir           :          -          -          -          -          -          -          -       2166          0        480        480          0          -
  > flowcover      :          -          -          -          -          -          -          -          0          0          0          0          0          -
  > knapsackcover  :          -          -          -          -          -          -          -          0          0          0          0          0          -
  cgmip            :       0.00       0.00          0          0          0          0          0          0          0          0          0          0          0
  clique           :       0.00       0.00         22         22          0          0          0          0          0          0          0          0          0
  closecuts        :       0.00       0.00          0          0          0          0          0          0          0          0          0          0          0
  convexproj       :       0.00       0.00          0          0          0          0          0          0          0          0          0          0          0
  disjunctive      :       0.00       0.00          0          0          0          0          0          0          0          0          0          0          0
  eccuts           :       0.00       0.00          0          0          0          0          0          0          0          0          0          0          0
  gauge            :       0.00       0.00          0          0          0          0          0          0          0          0          0          0          0
  gomory           :       0.00       0.00          0          0          0          0          0          0          0          0          0          0          0
  > gomorymi       :          -          -          -          -          -          -          -          0          0          0          0          0          -
  > strongcg       :          -          -          -          -          -          -          -          0          0          0          0          0          -
  impliedbounds    :       0.22       0.00       4385         22          0          0          2          1          0          1          1          0          0
  interlattice     :       0.00       0.00          0          0          0          0          0          0          0          0          0          0          0
  interminor       :       0.00       0.00          0          0          0          0          0          0          0          0          0          0          0
  intersub         :       0.03       0.00          3          3          0          0          1          0          1          1          0          1          0
  intobj           :       0.00       0.00          0          0          0          0          0          0          0          0          0          0          0
  mcf              :       0.00       0.00          1          1          0          0          0          0          0          0          0          0          0
  minor            :       0.01       0.00          0          0          0          0          0          0          0          0          0          0          0
  mixing           :       0.00       0.00       4387         22          0          0          0          0          0          0          0          0          0
  oddcycle         :       0.00       0.00          0          0          0          0          0          0          0          0          0          0          0
  rapidlearning    :       0.00       0.00          0          0          0          0          0          0          0          0          0          0          0
  rlt              :       0.00       0.00         10         10          0          0          0          0          0          0          0          0          0
  zerohalf         :      35.71       0.00       4051         20          0          0      33801     583137          0     100122     100122          0          0
Cutselectors       :   ExecTime  SetupTime      Calls  RootCalls   Selected     Forced   Filtered  RootSelec   RootForc   RootFilt 
  hybrid           :       0.66       0.00      23195         21     118449          0     485057        164          0         38
Pricers            :   ExecTime  SetupTime      Calls       Vars
  problem variables:       0.00          -          0          0
Branching Rules    :   ExecTime  SetupTime   BranchLP  BranchExt   BranchPS    Cutoffs    DomReds       Cuts      Conss   Children
  allfullstrong    :       0.00       0.00          0          0          0          0          0          0          0          0
  cloud            :       0.00       0.00          0          0          0          0          0          0          0          0
  distribution     :       0.00       0.00          0          0          0          0          0          0          0          0
  fullstrong       :       0.00       0.00          0          0          0          0          0          0          0          0
  inference        :       0.00       0.00          0          0          0          0          0          0          0          0
  leastinf         :       0.00       0.00          0          0          0          0          0          0          0          0
  lookahead        :       0.00       0.00          0          0          0          0          0          0          0          0
  mostinf          :       0.00       0.00          0          0          0          0          0          0          0          0
  multaggr         :       0.00       0.00          0          0          0          0          0          0          0          0
  nodereopt        :       0.00       0.00          0          0          0          0          0          0          0          0
  pscost           :       0.00       0.00          0          0          0          0          0          0          0          0
  random           :       0.00       0.00          0          0          0          0          0          0          0          0
  relpscost        :      47.09       0.00      70563          0          0          0       2747          0       1244     139106
  vanillafullstrong:       0.00       0.00          0          0          0          0          0          0          0          0
Primal Heuristics  :   ExecTime  SetupTime      Calls      Found       Best
  LP solutions     :       0.04          -          -         15         15
  relax solutions  :       0.00          -          -          0          0
  pseudo solutions :       0.00          -          -          0          0
  strong branching :       0.04          -          -          1          1
  actconsdiving    :       0.00       0.00          0          0          0
  adaptivediving   :       3.01       0.00         42          0          0
  alns             :       1.79       0.00         14          1          1
  bound            :       0.00       0.00          0          0          0
  clique           :       0.01       0.00          1          0          0
  coefdiving       :       0.00       0.00          0          0          0
  completesol      :       0.00       0.00          0          0          0
  conflictdiving   :      27.90       0.00        416          0          0
  crossover        :       0.86       0.00          7          1          1
  dins             :       0.00       0.00          0          0          0
  distributiondivin:      49.71       0.00        416          0          0
  dps              :       0.00       0.00          0          0          0
  dualval          :       0.00       0.00          0          0          0
  farkasdiving     :       0.00       0.00          0          0          0
  feaspump         :       0.11       0.00          1          1          1
  fixandinfer      :       0.00       0.00          0          0          0
  fracdiving       :      33.63       0.00        417          0          0
  gins             :       0.14       0.00          0          0          0
  guideddiving     :      29.90       0.00        416          2          2
  indicator        :       0.11       0.00          0          0          0
  indicatordiving  :       0.00       0.00          0          0          0
  intdiving        :       0.00       0.00          0          0          0
  intshifting      :       0.22       0.00         44          0          0
  linesearchdiving :      31.58       0.00        416          0          0
  localbranching   :       0.00       0.00          0          0          0
  locks            :       0.00       0.00          1          0          0
  lpface           :       0.08       0.00          0          0          0
  mpec             :      61.34       0.00          2          0          0
  multistart       :       0.00       0.00          0          0          0
  mutation         :       0.00       0.00          0          0          0
  nlpdiving        :      13.14       0.00          8          0          0
  objpscostdiving  :      51.58       0.00         85         13          0
  octane           :       0.00       0.00          0          0          0
  ofins            :       0.09       0.00          0          0          0
  oneopt           :       0.10       0.00         31          0          0
  padm             :       0.00       0.00          0          0          0
  proximity        :       0.00       0.00          0          0          0
  pscostdiving     :      37.72       0.00        416          3          3
  randrounding     :       0.11       0.00       2448          0          0
  rens             :       0.00       0.00          0          0          0
  reoptsols        :       0.00       0.00          0          0          0
  repair           :       0.00       0.00          0          0          0
  rins             :       7.77       0.00          6          2          1
  rootsoldiving    :      43.09       0.00         49          2          0
  rounding         :       1.09       0.00       4306          0          0
  shiftandpropagate:       0.00       0.00          0          0          0
  shifting         :      41.59       0.00      10586          5          5
  simplerounding   :       0.07       0.00          0          0          0
  subnlp           :     128.19       0.00          0          0          0
  trivial          :       0.00       0.00          2          2          2
  trivialnegation  :       0.00       0.00          0          0          0
  trustregion      :       0.00       0.00          0          0          0
  trysol           :       0.10       0.00          0          0          0
  twoopt           :       0.00       0.00          0          0          0
  undercover       :       2.23       0.00          1          0          0
  vbounds          :       0.00       0.00          0          0          0
  veclendiving     :      30.60       0.00        416          0          0
  zeroobj          :       0.00       0.00          0          0          0
  zirounding       :       0.42       0.00       1000          0          0
  other solutions  :          -          -          -          0          -
Diving (single)    :      Calls      Nodes   LP Iters Backtracks  Conflicts   MinDepth   MaxDepth   AvgDepth  RoundSols  NLeafSols  MinSolDpt  MaxSolDpt  AvgSolDpt
  actconsdiving    :          0          -          -          -          -          -          -          -          -          -          -          -          -
  coefdiving       :          0          -          -          -          -          -          -          -          -          -          -          -          -
  conflictdiving   :        416      12958     313847        455       9834         36         66       48.7          0          -          -          -          -
  distributiondivin:        416       9876     398222        461       4887         34         54       40.5          0          -          -          -          -
  farkasdiving     :          0          -          -          -          -          -          -          -          -          -          -          -          -
  fracdiving       :        417      34626     355612        409       4713         44        478       99.9          0          -          -          -          -
  guideddiving     :        416      31311     324704        311       4445         48        379       92.5          0          2         74         75       74.5
  indicatordiving  :          0          -          -          -          -          -          -          -          -          -          -          -          -
  linesearchdiving :        416      11120     375130        522       8642         31         65       43.4          0          -          -          -          -
  pscostdiving     :        416      11860     414087        420       5902         36         61       45.5          0          3         48         58       54.3
  veclendiving     :        416      12360     347260        457      13265         38         65       46.8          0          -          -          -          -
Diving (adaptive)  :      Calls      Nodes   LP Iters Backtracks  Conflicts   MinDepth   MaxDepth   AvgDepth  RoundSols  NLeafSols  MinSolDpt  MaxSolDpt  AvgSolDpt
  actconsdiving    :          9        221       8759         11        117         40         43       40.9          0          -          -          -          -
  coefdiving       :         18        526      12390         18        553         37         61       45.9          0          -          -          -          -
  conflictdiving   :          0          -          -          -          -          -          -          -          -          -          -          -          -
  distributiondivin:          0          -          -          -          -          -          -          -          -          -          -          -          -
  farkasdiving     :          0          -          -          -          -          -          -          -          -          -          -          -          -
  fracdiving       :          3        216       2325          2         18         55        131       88.7          0          -          -          -          -
  guideddiving     :          4        392       2851          4         25         70        229      116.0          0          -          -          -          -
  indicatordiving  :          0          -          -          -          -          -          -          -          -          -          -          -          -
  linesearchdiving :          0          -          -          -          -          -          -          -          -          -          -          -          -
  pscostdiving     :          2         73       2118          2         31         47         53       50.0          0          -          -          -          -
  veclendiving     :          6        171       5066          6        172         41         53       45.0          0          -          -          -          -
Neighborhoods      :      Calls  SetupTime  SolveTime SolveNodes       Sols       Best       Exp3  EpsGreedy        UCB TgtFixRate  Opt  Inf Node Stal  Sol  Usr Othr Actv
  rens             :          1       0.05       0.01          0          0          0    0.00000   -1.00000    0.56582      0.700    0    1    0    0    0    0    0    1
  rins             :          1       0.01       0.01          0          0          0    0.00000   -1.00000    0.56582      0.700    0    1    0    0    0    0    0    1
  mutation         :          1       0.05       0.01          1          0          0    0.00000   -1.00000    0.56495      0.700    0    1    0    0    0    0    0    1
  localbranching   :          2       0.08       0.07         45          0          0    0.00000   -1.00000    0.48934      0.550    0    2    0    0    0    0    0    1
  crossover        :          2       0.09       0.05         31          0          0    0.00000   -1.00000    0.50714      0.550    0    2    0    0    0    0    0    1
  proximity        :          2       0.09       0.14         79          0          0    0.00000   -1.00000    0.43475      0.850    0    1    0    1    0    0    0    1
  zeroobjective    :          2       0.07       0.07         50          0          0    0.00000   -1.00000    0.47155      0.850    0    1    0    1    0    0    0    1
  dins             :          3       0.20       0.71        542          1          1    0.00000   -1.00000    0.48608      0.662    1    1    0    1    0    0    0    1
  trustregion      :          0       0.00       0.00          0          0          0    0.00000   -1.00000    1.00000      0.900    0    0    0    0    0    0    0    0
Expressions        :   #IntEval  IntEvalTi   #RevProp  RevPropTi    DomReds    Cutoffs  #Estimate  EstimTime  Branching  #Simplify SimplifyTi Simplified
  pow              :          0       0.00          0       0.00          0          0          0       0.00          0          0       0.00          0
  prod             :       6320       0.00          0       0.00          0          0          0       0.00          0       4687       0.00          0
  sum              :          8       0.01          2       0.00          0          0          0       0.00          0          3       0.01          2
  var              :       5476       0.00          0       0.00          0          0          0       0.00          0      11145       0.00          0
  varidx           :          0       0.00          0       0.00          0          0          0       0.00          0          0       0.00          0
LP                 :       Time      Calls Iterations  Iter/call   Iter/sec  Time-0-It Calls-0-It    ItLimit
  primal LP        :     109.33       9831          0       0.00       0.00     109.29       9831
  dual LP          :    2568.07     155908   13097859      91.88    5100.27       5.53      13355
  lex dual LP      :       0.00          0          0       0.00          -
  barrier LP       :       0.00          0          0       0.00          -       0.00          0
  resolve instable :       0.00          0          0       0.00          -
  diving/probing LP:     289.82      13719    3131124     228.23   10803.69
  strong branching :      23.03       2383     233919      98.16   10157.14          -          -         42
    (at root node) :          -         19       2536     133.47          -
  conflict analysis:       3.18       2293      22375       9.76    7036.16
NLP relaxation     :
  solve time       :      13.12 (8 calls)
  convexity        :  nonconvex (4 linear rows, 0 convex ineq., 0 nonconvex ineq., 1527 nonlinear eq. or two-sided ineq.)
NLP Solvers        :  #Problems  ProblemTi    #Solves  SolveTime      #Iter  Time/Iter      #Okay #TimeLimit #IterLimit #LObjLimit #Interrupt  #NumError #EvalError  #OutOfMem #LicenseEr #OtherTerm   #GlobOpt    #LocOpt  #Feasible #LocInfeas #GlobInfea #Unbounded   #Unknown
  ipopt            :          3       4.77         13      74.66        530       0.14         13          0          0          0          0          0          0          0          0          0          0          0          0          5          0          0          8
B&B Tree           :
  number of runs   :          1
  nodes            :     118359 (69553 internal, 48806 leaves)
  feasible leaves  :         15
  infeas. leaves   :         10
  objective leaves :      48780
  nodes (total)    :     118359 (69553 internal, 48806 leaves)
  nodes left       :      20680
  max depth        :         50
  max depth (total):         50
  backtracks       :      25615 (21.6%)
  early backtracks :          0 (0.0%)
  nodes exc. ref.  :          0 (0.0%)
  delayed cutoffs  :          0
  repropagations   :         28 (25 domain reductions, 0 cutoffs)
  avg switch length:       4.31
  switching time   :     131.71
Estim. Tree Size   :     236854
Estimation Tree    : 139107 nodes (118427 visited, 69553 internal, 48874 leaves, 20680 open), weight: 0.0000 completed 0.0961
Estimations        :      estim      value      trend resolution     smooth
  wbe              : 18488615696          -          -          -          -
  tree-profile     :         -1          -          -          -          -
  gap              :    1009283    0.77500    0.00003         64    1115921
  tree-weight      :     236854    0.00001    0.00000         64     236526
  leaf-frequency   :     236854    0.41269   -0.00001         64     402230
  ssg              :    4792153    0.84830   -0.00002         64    4752937
  open-nodes       :     236854 20680.00000   20.61789         64     236526
Root Node          :
  First LP value   : -1.00000000000000e+00
  First LP Iters   :       1045 (13062.50 Iter/sec)
  First LP Time    :       0.08
  Final Dual Bound : -9.42624878665508e-01
  Final Root Iters :       1624
  Root LP Estimate : -5.12327487728809e-01
Solution           :
  Solutions found  :         48 (32 improvements)
  First Solution   : +1.00000000000000e+05   (in run 1, after 0 nodes, 0.04 seconds, depth 0, found by <trivial>)
  Gap First Sol.   :   infinite
  Gap Last Sol.    :      31.54 %
  Primal Bound     : -5.81012658227848e-01   (in run 1, after 76342 nodes, 2315.07 seconds, depth 20, found by <alns>)
  Dual Bound       : -7.49690137130803e-01
  Gap              :      29.03 %
Integrals          :      Total       Avg%
  primal-dual      :   93970.75      26.10
  primal-ref       :          -          - (not evaluated)
  dual-ref         :          -          - (not evaluated)
